tacasBenchmarks/factorization/in_qdimacs/factorization16.qdimacs
c Qdimacs file from skolem function generator
p cnf 388 1290
a 372 373 374 375 376 377 378 379 380 381 382 383 384 385 386 387 0
e 356 357 358 359 360 361 362 363 364 365 366 367 368 369 370 371 1 2 3 4 5 6 7 8 9 10 11 12 13 14 15 16 17 18 19 20 21 22 23 24 25 26 27 28 29 30 31 32 33 34 35 36 37 38 39 40 41 42 43 44 45 46 47 48 49 50 51 52 53 54 55 56 57 58 59 60 61 62 63 64 65 66 67 68 69 70 71 72 73 74 75 76 77 78 79 80 81 82 83 84 85 86 87 88 89 90 91 92 93 94 95 96 97 98 99 100 101 102 103 104 105 106 107 108 109 110 111 112 113 114 115 116 117 118 119 120 121 122 123 124 125 126 127 128 129 130 131 132 133 134 135 136 137 138 139 140 141 142 143 144 145 146 147 148 149 150 151 152 153 154 155 156 157 158 159 160 161 162 163 164 165 166 167 168 169 170 171 172 173 174 175 176 177 178 179 180 181 182 183 184 185 186 187 188 189 190 191 192 193 194 195 196 197 198 199 200 201 202 203 204 205 206 207 208 209 210 211 212 213 214 215 216 217 218 219 220 221 222 223 224 225 226 227 228 229 230 231 232 233 234 235 236 237 238 239 240 241 242 243 244 245 246 247 248 249 250 251 252 253 254 255 256 257 258 259 260 261 262 263 264 265 266 267 268 269 270 271 272 273 274 275 276 277 278 279 280 281 282 283 284 285 286 287 288 289 290 291 292 293 294 295 296 297 298 299 300 301 302 303 304 305 306 307 308 309 310 311 312 313 314 315 316 317 318 319 320 321 322 323 324 325 326 327 328 329 330 331 332 333 334 335 336 337 338 339 340 341 342 343 344 345 346 347 348 349 350 351 352 353 354 355 388 0
4 5 296 -300 0
-4 300 0
-4 -296 0
-4 -5 0
5 373 -6 0
5 -373 6 0
-5 -373 -6 0
-5 373 6 0
6 -7 -291 0
6 7 291 0
-6 7 -291 0
-6 -7 291 0
7 8 256 0
-7 -8 0
-7 -256 0
8 -362 -371 -9 0
-8 362 0
-8 371 0
-8 9 0
9 -10 -251 0
9 10 251 0
-9 10 -251 0
-9 -10 251 0
10 11 216 0
-10 -11 0
-10 -216 0
11 -362 -370 -12 0
-11 362 0
-11 370 0
-11 12 0
12 -13 -211 0
12 13 211 0
-12 13 -211 0
-12 -13 211 0
13 14 176 0
-13 -14 0
-13 -176 0
14 -362 -369 -15 0
-14 362 0
-14 369 0
-14 15 0
15 -16 -171 0
15 16 171 0
-15 16 -171 0
-15 -16 171 0
16 17 136 0
-16 -17 0
-16 -136 0
17 -362 -368 -18 0
-17 362 0
-17 368 0
-17 18 0
18 -19 -131 0
18 19 131 0
-18 19 -131 0
-18 -19 131 0
19 20 96 0
-19 -20 0
-19 -96 0
20 -362 -367 -21 0
-20 362 0
-20 367 0
-20 21 0
21 -22 -94 0
21 22 94 0
-21 22 -94 0
-21 -22 94 0
22 23 57 0
-22 -23 0
-22 -57 0
23 -362 -366 -24 0
-23 362 0
-23 366 0
-23 24 0
24 25 -26 0
24 364 -25 26 0
24 362 -25 26 0
-24 25 26 0
-24 -25 -26 0
-24 -362 -364 26 0
25 -363 -365 0
-25 363 0
-25 365 0
26 27 54 0
-26 -27 0
-26 -54 0
27 28 29 0
-27 -28 0
-27 -29 0
28 -361 -362 -364 -365 0
-28 365 0
-28 361 0
-28 364 0
-28 362 0
29 30 -51 0
-29 -30 0
-29 51 0
30 31 32 0
-30 -31 0
-30 -32 0
31 -360 -361 -364 -365 0
-31 365 0
-31 360 0
-31 364 0
-31 361 0
32 33 -48 0
-32 -33 0
-32 48 0
33 34 35 0
-33 -34 0
-33 -35 0
34 -359 -360 -364 -365 0
-34 365 0
-34 359 0
-34 364 0
-34 360 0
35 36 -45 0
-35 -36 0
-35 45 0
36 37 38 0
-36 -37 0
-36 -38 0
37 -358 -359 -364 -365 0
-37 365 0
-37 358 0
-37 364 0
-37 359 0
38 39 -42 0
-38 -39 0
-38 42 0
39 40 41 0
-39 -40 0
-39 -41 0
40 -356 -357 -364 -365 0
-40 365 0
-40 356 0
-40 364 0
-40 357 0
41 -357 -358 -364 -365 0
-41 365 0
-41 357 0
-41 364 0
-41 358 0
42 43 -44 0
42 -43 44 0
-42 -43 -44 0
-42 43 44 0
43 -359 -364 0
-43 359 0
-43 364 0
44 -358 -365 0
-44 358 0
-44 365 0
45 46 -47 0
45 -46 47 0
-45 -46 -47 0
-45 46 47 0
46 -360 -364 0
-46 360 0
-46 364 0
47 -359 -365 0
-47 359 0
-47 365 0
48 49 -50 0
48 -49 50 0
-48 -49 -50 0
-48 49 50 0
49 -361 -364 0
-49 361 0
-49 364 0
50 -360 -365 0
-50 360 0
-50 365 0
51 52 -53 0
51 -52 53 0
-51 -52 -53 0
-51 52 53 0
52 -362 -364 0
-52 362 0
-52 364 0
53 -361 -365 0
-53 361 0
-53 365 0
54 -55 -56 0
54 55 56 0
-54 55 -56 0
-54 -55 56 0
55 -362 -365 0
-55 362 0
-55 365 0
56 -363 -364 0
-56 363 0
-56 364 0
57 58 -92 0
-57 -58 0
-57 92 0
58 59 61 0
-58 -59 0
-58 -61 0
59 -361 -366 -60 0
-59 361 0
-59 366 0
-59 60 0
60 27 -54 0
60 -27 54 0
-60 -27 -54 0
-60 27 54 0
61 62 -90 0
-61 -62 0
-61 90 0
62 63 65 0
-62 -63 0
-62 -65 0
63 -360 -366 -64 0
-63 360 0
-63 366 0
-63 64 0
64 -30 -51 0
64 30 51 0
-64 30 -51 0
-64 -30 51 0
65 66 -88 0
-65 -66 0
-65 88 0
66 67 69 0
-66 -67 0
-66 -69 0
67 -359 -366 -68 0
-67 359 0
-67 366 0
-67 68 0
68 -33 -48 0
68 33 48 0
-68 33 -48 0
-68 -33 48 0
69 70 -86 0
-69 -70 0
-69 86 0
70 71 73 0
-70 -71 0
-70 -73 0
71 -358 -366 -72 0
-71 358 0
-71 366 0
-71 72 0
72 -36 -45 0
72 36 45 0
-72 36 -45 0
-72 -36 45 0
73 74 -84 0
-73 -74 0
-73 84 0
74 75 77 0
-74 -75 0
-74 -77 0
75 -357 -366 -76 0
-75 357 0
-75 366 0
-75 76 0
76 -39 -42 0
76 39 42 0
-76 39 -42 0
-76 -39 42 0
77 -78 -82 0
-77 78 0
-77 82 0
78 -356 -366 -79 0
-78 356 0
-78 366 0
-78 79 0
79 40 -80 81 0
79 -40 -80 -81 0
79 40 80 -81 0
-79 -40 81 0
-79 -40 80 0
-79 80 81 0
-79 40 -80 -81 0
80 -358 -364 0
-80 358 0
-80 364 0
81 -357 -365 0
-81 357 0
-81 365 0
82 76 -83 0
82 -76 83 0
-82 -76 -83 0
-82 76 83 0
83 -357 -366 0
-83 357 0
-83 366 0
84 72 -85 0
84 -72 85 0
-84 -72 -85 0
-84 72 85 0
85 -358 -366 0
-85 358 0
-85 366 0
86 68 -87 0
86 -68 87 0
-86 -68 -87 0
-86 68 87 0
87 -359 -366 0
-87 359 0
-87 366 0
88 64 -89 0
88 -64 89 0
-88 -64 -89 0
-88 64 89 0
89 -360 -366 0
-89 360 0
-89 366 0
90 60 -91 0
90 -60 91 0
-90 -60 -91 0
-90 60 91 0
91 -361 -366 0
-91 361 0
-91 366 0
92 93 -24 0
92 -93 24 0
-92 -93 -24 0
-92 93 24 0
93 -362 -366 0
-93 362 0
-93 366 0
94 366 -95 0
94 -363 -366 95 0
-94 363 -366 0
-94 366 95 0
-94 -366 -95 0
95 -363 -365 -26 0
95 -363 -365 -52 0
-95 363 0
-95 365 0
-95 52 26 0
96 97 -129 0
-96 -97 0
-96 129 0
97 98 100 0
-97 -98 0
-97 -100 0
98 -361 -367 -99 0
-98 361 0
-98 367 0
-98 99 0
99 -58 -92 0
99 58 92 0
-99 58 -92 0
-99 -58 92 0
100 101 -127 0
-100 -101 0
-100 127 0
101 102 104 0
-101 -102 0
-101 -104 0
102 -360 -367 -103 0
-102 360 0
-102 367 0
-102 103 0
103 -62 -90 0
103 62 90 0
-103 62 -90 0
-103 -62 90 0
104 105 -125 0
-104 -105 0
-104 125 0
105 106 108 0
-105 -106 0
-105 -108 0
106 -359 -367 -107 0
-106 359 0
-106 367 0
-106 107 0
107 -66 -88 0
107 66 88 0
-107 66 -88 0
-107 -66 88 0
108 109 -123 0
-108 -109 0
-108 123 0
109 110 112 0
-109 -110 0
-109 -112 0
110 -358 -367 -111 0
-110 358 0
-110 367 0
-110 111 0
111 -70 -86 0
111 70 86 0
-111 70 -86 0
-111 -70 86 0
112 113 -121 0
-112 -113 0
-112 121 0
113 114 116 0
-113 -114 0
-113 -116 0
114 -357 -367 -115 0
-114 357 0
-114 367 0
-114 115 0
115 -74 -84 0
115 74 84 0
-115 74 -84 0
-115 -74 84 0
116 -117 -119 0
-116 117 0
-116 119 0
117 -356 -367 -118 0
-117 356 0
-117 367 0
-117 118 0
118 78 -82 0
118 -78 82 0
-118 -78 -82 0
-118 78 82 0
119 115 -120 0
119 -115 120 0
-119 -115 -120 0
-119 115 120 0
120 -357 -367 0
-120 357 0
-120 367 0
121 111 -122 0
121 -111 122 0
-121 -111 -122 0
-121 111 122 0
122 -358 -367 0
-122 358 0
-122 367 0
123 107 -124 0
123 -107 124 0
-123 -107 -124 0
-123 107 124 0
124 -359 -367 0
-124 359 0
-124 367 0
125 103 -126 0
125 -103 126 0
-125 -103 -126 0
-125 103 126 0
126 -360 -367 0
-126 360 0
-126 367 0
127 128 -99 0
127 -128 99 0
-127 -128 -99 0
-127 128 99 0
128 -361 -367 0
-128 361 0
-128 367 0
129 130 -21 0
129 -130 21 0
-129 -130 -21 0
-129 130 21 0
130 -362 -367 0
-130 362 0
-130 367 0
131 -132 -133 0
131 132 133 0
-131 132 -133 0
-131 -132 133 0
132 -363 -367 0
-132 363 0
-132 367 0
133 134 135 0
-133 -134 0
-133 -135 0
134 -366 -95 0
-134 366 0
-134 95 0
135 22 -94 0
-135 -22 0
-135 94 0
136 137 -169 0
-136 -137 0
-136 169 0
137 138 140 0
-137 -138 0
-137 -140 0
138 -361 -368 -139 0
-138 361 0
-138 368 0
-138 139 0
139 -97 -129 0
139 97 129 0
-139 97 -129 0
-139 -97 129 0
140 141 -167 0
-140 -141 0
-140 167 0
141 142 144 0
-141 -142 0
-141 -144 0
142 -360 -368 -143 0
-142 360 0
-142 368 0
-142 143 0
143 -101 -127 0
143 101 127 0
-143 101 -127 0
-143 -101 127 0
144 145 -165 0
-144 -145 0
-144 165 0
145 146 148 0
-145 -146 0
-145 -148 0
146 -359 -368 -147 0
-146 359 0
-146 368 0
-146 147 0
147 -105 -125 0
147 105 125 0
-147 105 -125 0
-147 -105 125 0
148 149 -163 0
-148 -149 0
-148 163 0
149 150 152 0
-149 -150 0
-149 -152 0
150 -358 -368 -151 0
-150 358 0
-150 368 0
-150 151 0
151 -109 -123 0
151 109 123 0
-151 109 -123 0
-151 -109 123 0
152 153 -161 0
-152 -153 0
-152 161 0
153 154 156 0
-153 -154 0
-153 -156 0
154 -357 -368 -155 0
-154 357 0
-154 368 0
-154 155 0
155 -113 -121 0
155 113 121 0
-155 113 -121 0
-155 -113 121 0
156 -157 -159 0
-156 157 0
-156 159 0
157 -356 -368 -158 0
-157 356 0
-157 368 0
-157 158 0
158 117 -119 0
158 -117 119 0
-158 -117 -119 0
-158 117 119 0
159 155 -160 0
159 -155 160 0
-159 -155 -160 0
-159 155 160 0
160 -357 -368 0
-160 357 0
-160 368 0
161 151 -162 0
161 -151 162 0
-161 -151 -162 0
-161 151 162 0
162 -358 -368 0
-162 358 0
-162 368 0
163 147 -164 0
163 -147 164 0
-163 -147 -164 0
-163 147 164 0
164 -359 -368 0
-164 359 0
-164 368 0
165 166 -143 0
165 -166 143 0
-165 -166 -143 0
-165 166 143 0
166 -360 -368 0
-166 360 0
-166 368 0
167 168 -139 0
167 -168 139 0
-167 -168 -139 0
-167 168 139 0
168 -361 -368 0
-168 361 0
-168 368 0
169 170 -18 0
169 -170 18 0
-169 -170 -18 0
-169 170 18 0
170 -362 -368 0
-170 362 0
-170 368 0
171 -172 -173 0
171 172 173 0
-171 172 -173 0
-171 -172 173 0
172 -363 -368 0
-172 363 0
-172 368 0
173 174 175 0
-173 -174 0
-173 -175 0
174 -363 -367 133 0
-174 363 0
-174 367 0
-174 -133 0
175 19 -131 0
-175 -19 0
-175 131 0
176 177 -209 0
-176 -177 0
-176 209 0
177 178 180 0
-177 -178 0
-177 -180 0
178 -361 -369 -179 0
-178 361 0
-178 369 0
-178 179 0
179 -137 -169 0
179 137 169 0
-179 137 -169 0
-179 -137 169 0
180 181 -207 0
-180 -181 0
-180 207 0
181 182 184 0
-181 -182 0
-181 -184 0
182 -360 -369 -183 0
-182 360 0
-182 369 0
-182 183 0
183 -141 -167 0
183 141 167 0
-183 141 -167 0
-183 -141 167 0
184 185 -205 0
-184 -185 0
-184 205 0
185 186 188 0
-185 -186 0
-185 -188 0
186 -359 -369 -187 0
-186 359 0
-186 369 0
-186 187 0
187 -145 -165 0
187 145 165 0
-187 145 -165 0
-187 -145 165 0
188 189 -203 0
-188 -189 0
-188 203 0
189 190 192 0
-189 -190 0
-189 -192 0
190 -358 -369 -191 0
-190 358 0
-190 369 0
-190 191 0
191 -149 -163 0
191 149 163 0
-191 149 -163 0
-191 -149 163 0
192 193 -201 0
-192 -193 0
-192 201 0
193 194 196 0
-193 -194 0
-193 -196 0
194 -357 -369 -195 0
-194 357 0
-194 369 0
-194 195 0
195 -153 -161 0
195 153 161 0
-195 153 -161 0
-195 -153 161 0
196 -197 -199 0
-196 197 0
-196 199 0
197 -356 -369 -198 0
-197 356 0
-197 369 0
-197 198 0
198 157 -159 0
198 -157 159 0
-198 -157 -159 0
-198 157 159 0
199 195 -200 0
199 -195 200 0
-199 -195 -200 0
-199 195 200 0
200 -357 -369 0
-200 357 0
-200 369 0
201 191 -202 0
201 -191 202 0
-201 -191 -202 0
-201 191 202 0
202 -358 -369 0
-202 358 0
-202 369 0
203 204 -187 0
203 -204 187 0
-203 -204 -187 0
-203 204 187 0
204 -359 -369 0
-204 359 0
-204 369 0
205 206 -183 0
205 -206 183 0
-205 -206 -183 0
-205 206 183 0
206 -360 -369 0
-206 360 0
-206 369 0
207 208 -179 0
207 -208 179 0
-207 -208 -179 0
-207 208 179 0
208 -361 -369 0
-208 361 0
-208 369 0
209 210 -15 0
209 -210 15 0
-209 -210 -15 0
-209 210 15 0
210 -362 -369 0
-210 362 0
-210 369 0
211 -212 -213 0
211 212 213 0
-211 212 -213 0
-211 -212 213 0
212 -363 -369 0
-212 363 0
-212 369 0
213 214 215 0
-213 -214 0
-213 -215 0
214 -363 -368 173 0
-214 363 0
-214 368 0
-214 -173 0
215 16 -171 0
-215 -16 0
-215 171 0
216 217 -249 0
-216 -217 0
-216 249 0
217 218 220 0
-217 -218 0
-217 -220 0
218 -361 -370 -219 0
-218 361 0
-218 370 0
-218 219 0
219 -177 -209 0
219 177 209 0
-219 177 -209 0
-219 -177 209 0
220 221 -247 0
-220 -221 0
-220 247 0
221 222 224 0
-221 -222 0
-221 -224 0
222 -360 -370 -223 0
-222 360 0
-222 370 0
-222 223 0
223 -181 -207 0
223 181 207 0
-223 181 -207 0
-223 -181 207 0
224 225 -245 0
-224 -225 0
-224 245 0
225 226 228 0
-225 -226 0
-225 -228 0
226 -359 -370 -227 0
-226 359 0
-226 370 0
-226 227 0
227 -185 -205 0
227 185 205 0
-227 185 -205 0
-227 -185 205 0
228 229 -243 0
-228 -229 0
-228 243 0
229 230 232 0
-229 -230 0
-229 -232 0
230 -358 -370 -231 0
-230 358 0
-230 370 0
-230 231 0
231 -189 -203 0
231 189 203 0
-231 189 -203 0
-231 -189 203 0
232 233 -241 0
-232 -233 0
-232 241 0
233 234 236 0
-233 -234 0
-233 -236 0
234 -357 -370 -235 0
-234 357 0
-234 370 0
-234 235 0
235 -193 -201 0
235 193 201 0
-235 193 -201 0
-235 -193 201 0
236 -237 -239 0
-236 237 0
-236 239 0
237 -356 -370 -238 0
-237 356 0
-237 370 0
-237 238 0
238 197 -199 0
238 -197 199 0
-238 -197 -199 0
-238 197 199 0
239 235 -240 0
239 -235 240 0
-239 -235 -240 0
-239 235 240 0
240 -357 -370 0
-240 357 0
-240 370 0
241 242 -231 0
241 -242 231 0
-241 -242 -231 0
-241 242 231 0
242 -358 -370 0
-242 358 0
-242 370 0
243 244 -227 0
243 -244 227 0
-243 -244 -227 0
-243 244 227 0
244 -359 -370 0
-244 359 0
-244 370 0
245 246 -223 0
245 -246 223 0
-245 -246 -223 0
-245 246 223 0
246 -360 -370 0
-246 360 0
-246 370 0
247 248 -219 0
247 -248 219 0
-247 -248 -219 0
-247 248 219 0
248 -361 -370 0
-248 361 0
-248 370 0
249 250 -12 0
249 -250 12 0
-249 -250 -12 0
-249 250 12 0
250 -362 -370 0
-250 362 0
-250 370 0
251 -252 -253 0
251 252 253 0
-251 252 -253 0
-251 -252 253 0
252 -363 -370 0
-252 363 0
-252 370 0
253 254 255 0
-253 -254 0
-253 -255 0
254 -363 -369 213 0
-254 363 0
-254 369 0
-254 -213 0
255 13 -211 0
-255 -13 0
-255 211 0
256 257 -289 0
-256 -257 0
-256 289 0
257 258 260 0
-257 -258 0
-257 -260 0
258 -361 -371 -259 0
-258 361 0
-258 371 0
-258 259 0
259 -217 -249 0
259 217 249 0
-259 217 -249 0
-259 -217 249 0
260 261 -287 0
-260 -261 0
-260 287 0
261 262 264 0
-261 -262 0
-261 -264 0
262 -360 -371 -263 0
-262 360 0
-262 371 0
-262 263 0
263 -221 -247 0
263 221 247 0
-263 221 -247 0
-263 -221 247 0
264 265 -285 0
-264 -265 0
-264 285 0
265 266 268 0
-265 -266 0
-265 -268 0
266 -359 -371 -267 0
-266 359 0
-266 371 0
-266 267 0
267 -225 -245 0
267 225 245 0
-267 225 -245 0
-267 -225 245 0
268 269 -283 0
-268 -269 0
-268 283 0
269 270 272 0
-269 -270 0
-269 -272 0
270 -358 -371 -271 0
-270 358 0
-270 371 0
-270 271 0
271 -229 -243 0
271 229 243 0
-271 229 -243 0
-271 -229 243 0
272 273 -281 0
-272 -273 0
-272 281 0
273 274 276 0
-273 -274 0
-273 -276 0
274 -357 -371 -275 0
-274 357 0
-274 371 0
-274 275 0
275 -233 -241 0
275 233 241 0
-275 233 -241 0
-275 -233 241 0
276 -277 -279 0
-276 277 0
-276 279 0
277 -356 -371 -278 0
-277 356 0
-277 371 0
-277 278 0
278 237 -239 0
278 -237 239 0
-278 -237 -239 0
-278 237 239 0
279 280 -275 0
279 -280 275 0
-279 -280 -275 0
-279 280 275 0
280 -357 -371 0
-280 357 0
-280 371 0
281 282 -271 0
281 -282 271 0
-281 -282 -271 0
-281 282 271 0
282 -358 -371 0
-282 358 0
-282 371 0
283 284 -267 0
283 -284 267 0
-283 -284 -267 0
-283 284 267 0
284 -359 -371 0
-284 359 0
-284 371 0
285 286 -263 0
285 -286 263 0
-285 -286 -263 0
-285 286 263 0
286 -360 -371 0
-286 360 0
-286 371 0
287 288 -259 0
287 -288 259 0
-287 -288 -259 0
-287 288 259 0
288 -361 -371 0
-288 361 0
-288 371 0
289 290 -9 0
289 -290 9 0
-289 -290 -9 0
-289 290 9 0
290 -362 -371 0
-290 362 0
-290 371 0
291 -292 -293 0
291 292 293 0
-291 292 -293 0
-291 -292 293 0
292 -363 -371 0
-292 363 0
-292 371 0
293 294 295 0
-293 -294 0
-293 -295 0
294 -363 -370 253 0
-294 363 0
-294 370 0
-294 -253 0
295 10 -251 0
-295 -10 0
-295 251 0
296 -372 -297 0
296 372 297 0
-296 372 -297 0
-296 -372 297 0
297 298 299 0
-297 -298 0
-297 -299 0
298 -363 -371 293 0
-298 363 0
-298 371 0
-298 -293 0
299 7 -291 0
-299 -7 0
-299 291 0
300 301 303 -305 0
-300 305 0
-300 -303 0
-300 -301 0
301 374 -302 0
301 -374 302 0
-301 -374 -302 0
-301 374 302 0
302 -257 -289 0
302 257 289 0
-302 257 -289 0
-302 -257 289 0
303 375 -304 0
303 -375 304 0
-303 -375 -304 0
-303 375 304 0
304 -261 -287 0
304 261 287 0
-304 261 -287 0
-304 -261 287 0
305 306 308 -310 0
-305 310 0
-305 -308 0
-305 -306 0
306 376 -307 0
306 -376 307 0
-306 -376 -307 0
-306 376 307 0
307 -265 -285 0
307 265 285 0
-307 265 -285 0
-307 -265 285 0
308 377 -309 0
308 -377 309 0
-308 -377 -309 0
-308 377 309 0
309 -269 -283 0
309 269 283 0
-309 269 -283 0
-309 -269 283 0
310 311 313 -315 0
-310 315 0
-310 -313 0
-310 -311 0
311 378 -312 0
311 -378 312 0
-311 -378 -312 0
-311 378 312 0
312 -273 -281 0
312 273 281 0
-312 273 -281 0
-312 -273 281 0
313 379 -314 0
313 -379 314 0
-313 -379 -314 0
-313 379 314 0
314 277 -279 0
314 -277 279 0
-314 -277 -279 0
-314 277 279 0
315 -380 -316 -318 0
315 380 316 -318 0
-315 318 0
-315 -380 316 0
-315 380 -316 0
316 278 -317 0
316 -278 317 0
-316 -278 -317 0
-316 278 317 0
317 -356 -371 0
-317 356 0
-317 371 0
318 381 319 321 -324 0
318 -381 -319 321 -324 0
-318 -321 0
-318 381 -319 0
-318 324 0
-318 -381 319 0
319 238 -320 0
319 -238 320 0
-319 -238 -320 0
-319 238 320 0
320 -356 -370 0
-320 356 0
-320 370 0
321 -382 322 0
-321 382 0
-321 -322 0
322 198 -323 0
322 -198 323 0
-322 -198 -323 0
-322 198 323 0
323 -356 -369 0
-323 356 0
-323 369 0
324 383 325 326 -328 0
324 -383 325 -326 -328 0
-324 328 0
-324 383 -326 0
-324 -325 0
-324 -383 326 0
325 382 -322 0
-325 -382 0
-325 322 0
326 158 -327 0
326 -158 327 0
-326 -158 -327 0
-326 158 327 0
327 -356 -368 0
-327 356 0
-327 368 0
328 -384 -329 -331 0
328 384 329 -331 0
-328 331 0
-328 -384 329 0
-328 384 -329 0
329 118 -330 0
329 -118 330 0
-329 -118 -330 0
-329 118 330 0
330 -356 -367 0
-330 356 0
-330 367 0
331 385 332 334 -338 0
331 -385 -332 334 -338 0
-331 -334 0
-331 385 -332 0
-331 338 0
-331 -385 332 0
332 333 -79 0
332 -333 79 0
-332 -333 -79 0
-332 333 79 0
333 -356 -366 0
-333 356 0
-333 366 0
334 386 -335 0
334 -386 335 0
-334 -386 -335 0
-334 386 335 0
335 336 -337 0
335 -336 337 0
-335 -336 -337 0
-335 336 337 0
336 -357 -364 0
-336 357 0
-336 364 0
337 -356 -365 0
-337 356 0
-337 365 0
338 339 342 343 0
-338 -339 0
-338 -343 0
-338 -342 0
339 -356 -340 0
339 -356 -364 387 0
-339 356 0
-339 364 340 0
-339 -387 340 0
340 361 362 363 -341 0
-340 341 0
-340 -363 0
-340 -361 0
-340 -362 0
341 357 358 359 360 0
-341 -360 0
-341 -359 0
-341 -357 0
-341 -358 0
342 364 -387 0
342 356 -387 0
-342 387 0
-342 -356 -364 0
343 366 367 -344 -345 0
-343 -366 0
-343 345 0
-343 344 0
-343 -367 0
344 368 369 370 371 0
-344 -371 0
-344 -370 0
-344 -368 0
-344 -369 0
345 -364 365 0
-345 364 0
-345 -365 0
346 339 342 343 -347 0
-346 347 0
-346 -343 0
-346 -339 0
-346 -342 0
347 385 332 334 -348 0
347 -385 -332 334 -348 0
-347 -334 0
-347 385 -332 0
-347 348 0
-347 -385 332 0
348 384 349 329 -350 0
348 -384 349 -329 -350 0
-348 350 0
-348 384 -329 0
-348 -349 0
-348 -384 329 0
349 383 -326 0
-349 -383 0
-349 326 0
350 382 322 351 -352 0
350 -382 -322 351 -352 0
-350 -351 0
-350 382 -322 0
-350 352 0
-350 -382 322 0
351 -383 326 0
-351 383 0
-351 -326 0
352 -381 -319 -353 0
352 381 319 -353 0
-352 353 0
-352 -381 319 0
-352 381 -319 0
353 380 313 316 -354 0
353 -380 313 -316 -354 0
-353 354 0
-353 380 -316 0
-353 -313 0
-353 -380 316 0
354 306 308 311 -355 0
-354 355 0
-354 -311 0
-354 -306 0
-354 -308 0
355 5 296 301 303 0
-355 -303 0
-355 -301 0
-355 -5 0
-355 -296 0
388 0
2 -4 0
-2 4 0
3 -346 0
-3 346 0
3 0

